NAME : rc201.3.7224343.tour
COMMENT : Length = 7224343
COMMENT : Found by LKH [Keld Helsgaun] Tue May  2 05:49:38 2017
TYPE : TOUR
DIMENSION : 20
TOUR_SECTION
1
16
10
8
9
11
14
17
20
19
6
7
5
18
12
3
13
15
4
2
-1
EOF
